p cnf 23 8
e 1 2 3 0
a 4 5 0
e 6 0
a 7 0
e 8 0
a 9 0
e 10 0
a 11 0
e 12 13 0
a 14 15 0
e 16 17 0
a 18 19 20 21 0
e 22 23 0
21 -9 17 7 0
-12 2 4 -3 -11 0
-7 -9 -10 3 18 0
2 -21 22 0
1 -17 -16 -9 -4 0
-14 -21 23 7 0
-6 -5 13 9 0
-18 -22 -3 -8 -16 0
